Route #1: 1 2 52 32 21 7 34 6 40 26 1
Route #2: 1 13 8 17 33 16 20 24 44 51 37 50 30 45 31 23 5 1
Route #3: 1 48 10 18 42 25 12 53 1
Route #4: 1 14 35 22 15 4 1
Route #5: 1 19 39 36 28 9 1
Route #6: 1 47 41 27 11 3 29 1
Route #7: 1 38 43 49 46 1
cost: 1150
